AES/1_3_4/ssaes_r1-20_c3_rw1_e4_f0_k1-20_aes_min_box_aes_mc_bidirectional/ExperimentMinisat_r16_k7cnf_2011-10-29-154004/Result
WARNING: for repeatability, setting FPU to use double precision
============================[ Problem Statistics ]=============================
|                                                                             |
|  Number of variables:           932                                         |
|  Number of clauses:            3760                                         |
|  Parse time:                   0.00 s                                       |
|  Eliminated clauses:           0.01 Mb                                      |
|  Simplification time:          0.00 s                                       |
|                                                                             |
=============================[ Search Statistics ]==============================
| Conflicts  |          ORIGINAL         |          LEARNT          | Progress |
|            |    Vars  Clauses Literals |    Limit  Clauses Lit/Cl |          |
================================================================================
|        100 |     640     2920     9760 |     1070      100     10 |  9.442 % |
|        250 |     640     2920     9760 |     1177      250     10 |  9.442 % |
|        475 |     640     2920     9760 |     1295      475     11 |  9.442 % |
|        812 |     640     2920     9760 |     1425      812     11 |  9.442 % |
|       1318 |     640     2920     9760 |     1567     1318     12 |  9.442 % |
|       2077 |     640     2920     9760 |     1724     1239     11 |  9.442 % |
|       3216 |     640     2920     9760 |     1896     1464      8 |  9.442 % |
===============================================================================
restarts              : 25
conflicts             : 4696           (24850 /sec)
decisions             : 6168           (0.00 % random) (32640 /sec)
propagations          : 858066         (4540728 /sec)
conflict literals     : 55593          (33.68 % deleted)
Memory used           : 8.00 MB
CPU time              : 0.188971 s

SATISFIABLE
